c instance by G2
c solution = 110011111011111
c Known solution cost is 773 
p cnf 15 30
w 75 76 21 89 49 95 50 62 45 75 37 18 55 13 13
8 -12 -4 0
-12 2 -4 0
9 4 -13 0
-10 -6 -9 0
-2 14 -8 0
1 -8 7 0
11 -8 -12 0
-7 -4 3 0
-9 -2 -10 0
-4 -15 -8 0
13 5 -10 0
7 -12 -9 0
-5 -10 -2 0
12 -4 1 0
15 -7 -14 0
-9 12 8 0
-9 -5 13 0
4 9 -5 0
-14 -7 6 0
-15 8 -11 0
12 -15 1 0
-12 2 -9 0
11 5 -7 0
7 -10 3 0
14 -2 -4 0
-9 1 -13 0
-15 -11 12 0
-10 13 1 0
-14 -13 -3 0
-2 5 10 0
